maximize
1 x_1_1 + 1 x_1_2 + 1 x_1_3 + 1 x_1_4 + 1 x_1_5 + 1 x_1_6 + 1 x_1_7 + 1 x_2_1 + 1 x_2_2 + 1 x_2_3 + 1 x_2_4 + 1 x_2_5 + 1 x_2_6 + 1 x_2_7 + 1 x_3_1 + 1 x_3_2 + 1 x_3_3 + 1 x_3_4 + 1 x_3_5 + 1 x_3_6 + 1 x_3_7 + 1 x_4_1 + 1 x_4_2 + 1 x_4_3 + 1 x_4_4 + 1 x_4_5 + 1 x_4_6 + 1 x_4_7 + 1 x_5_1 + 1 x_5_2 + 1 x_5_3 + 1 x_5_4 + 1 x_5_5 + 1 x_5_6 + 1 x_5_7 + 1 x_6_1 + 1 x_6_2 + 1 x_6_3 + 1 x_6_4 + 1 x_6_5 + 1 x_6_6 + 1 x_6_7 + 1 x_7_1 + 1 x_7_2 + 1 x_7_3 + 1 x_7_4 + 1 x_7_5 + 1 x_7_6 + 1 x_7_7
subject to
1 x_1_1 + 1 x_1_2 <= 1
1 x_1_1 + 1 x_1_7 <= 1
1 x_1_1 + 1 x_2_1 <= 1
1 x_1_1 + 1 x_2_2 <= 1
1 x_1_1 + 1 x_2_7 <= 1
1 x_1_1 + 1 x_7_1 <= 1
1 x_1_1 + 1 x_7_2 <= 1
1 x_1_1 + 1 x_7_7 <= 1
1 x_1_2 + 1 x_1_3 <= 1
1 x_1_2 + 1 x_2_1 <= 1
1 x_1_2 + 1 x_2_2 <= 1
1 x_1_2 + 1 x_2_3 <= 1
1 x_1_2 + 1 x_7_1 <= 1
1 x_1_2 + 1 x_7_2 <= 1
1 x_1_2 + 1 x_7_3 <= 1
1 x_1_3 + 1 x_1_4 <= 1
1 x_1_3 + 1 x_2_2 <= 1
1 x_1_3 + 1 x_2_3 <= 1
1 x_1_3 + 1 x_2_4 <= 1
1 x_1_3 + 1 x_7_2 <= 1
1 x_1_3 + 1 x_7_3 <= 1
1 x_1_3 + 1 x_7_4 <= 1
1 x_1_4 + 1 x_1_5 <= 1
1 x_1_4 + 1 x_2_3 <= 1
1 x_1_4 + 1 x_2_4 <= 1
1 x_1_4 + 1 x_2_5 <= 1
1 x_1_4 + 1 x_7_3 <= 1
1 x_1_4 + 1 x_7_4 <= 1
1 x_1_4 + 1 x_7_5 <= 1
1 x_1_5 + 1 x_1_6 <= 1
1 x_1_5 + 1 x_2_4 <= 1
1 x_1_5 + 1 x_2_5 <= 1
1 x_1_5 + 1 x_2_6 <= 1
1 x_1_5 + 1 x_7_4 <= 1
1 x_1_5 + 1 x_7_5 <= 1
1 x_1_5 + 1 x_7_6 <= 1
1 x_1_6 + 1 x_1_7 <= 1
1 x_1_6 + 1 x_2_5 <= 1
1 x_1_6 + 1 x_2_6 <= 1
1 x_1_6 + 1 x_2_7 <= 1
1 x_1_6 + 1 x_7_5 <= 1
1 x_1_6 + 1 x_7_6 <= 1
1 x_1_6 + 1 x_7_7 <= 1
1 x_1_7 + 1 x_2_1 <= 1
1 x_1_7 + 1 x_2_6 <= 1
1 x_1_7 + 1 x_2_7 <= 1
1 x_1_7 + 1 x_7_1 <= 1
1 x_1_7 + 1 x_7_6 <= 1
1 x_1_7 + 1 x_7_7 <= 1
1 x_2_1 + 1 x_2_2 <= 1
1 x_2_1 + 1 x_2_7 <= 1
1 x_2_1 + 1 x_3_1 <= 1
1 x_2_1 + 1 x_3_2 <= 1
1 x_2_1 + 1 x_3_7 <= 1
1 x_2_2 + 1 x_2_3 <= 1
1 x_2_2 + 1 x_3_1 <= 1
1 x_2_2 + 1 x_3_2 <= 1
1 x_2_2 + 1 x_3_3 <= 1
1 x_2_3 + 1 x_2_4 <= 1
1 x_2_3 + 1 x_3_2 <= 1
1 x_2_3 + 1 x_3_3 <= 1
1 x_2_3 + 1 x_3_4 <= 1
1 x_2_4 + 1 x_2_5 <= 1
1 x_2_4 + 1 x_3_3 <= 1
1 x_2_4 + 1 x_3_4 <= 1
1 x_2_4 + 1 x_3_5 <= 1
1 x_2_5 + 1 x_2_6 <= 1
1 x_2_5 + 1 x_3_4 <= 1
1 x_2_5 + 1 x_3_5 <= 1
1 x_2_5 + 1 x_3_6 <= 1
1 x_2_6 + 1 x_2_7 <= 1
1 x_2_6 + 1 x_3_5 <= 1
1 x_2_6 + 1 x_3_6 <= 1
1 x_2_6 + 1 x_3_7 <= 1
1 x_2_7 + 1 x_3_1 <= 1
1 x_2_7 + 1 x_3_6 <= 1
1 x_2_7 + 1 x_3_7 <= 1
1 x_3_1 + 1 x_3_2 <= 1
1 x_3_1 + 1 x_3_7 <= 1
1 x_3_1 + 1 x_4_1 <= 1
1 x_3_1 + 1 x_4_2 <= 1
1 x_3_1 + 1 x_4_7 <= 1
1 x_3_2 + 1 x_3_3 <= 1
1 x_3_2 + 1 x_4_1 <= 1
1 x_3_2 + 1 x_4_2 <= 1
1 x_3_2 + 1 x_4_3 <= 1
1 x_3_3 + 1 x_3_4 <= 1
1 x_3_3 + 1 x_4_2 <= 1
1 x_3_3 + 1 x_4_3 <= 1
1 x_3_3 + 1 x_4_4 <= 1
1 x_3_4 + 1 x_3_5 <= 1
1 x_3_4 + 1 x_4_3 <= 1
1 x_3_4 + 1 x_4_4 <= 1
1 x_3_4 + 1 x_4_5 <= 1
1 x_3_5 + 1 x_3_6 <= 1
1 x_3_5 + 1 x_4_4 <= 1
1 x_3_5 + 1 x_4_5 <= 1
1 x_3_5 + 1 x_4_6 <= 1
1 x_3_6 + 1 x_3_7 <= 1
1 x_3_6 + 1 x_4_5 <= 1
1 x_3_6 + 1 x_4_6 <= 1
1 x_3_6 + 1 x_4_7 <= 1
1 x_3_7 + 1 x_4_1 <= 1
1 x_3_7 + 1 x_4_6 <= 1
1 x_3_7 + 1 x_4_7 <= 1
1 x_4_1 + 1 x_4_2 <= 1
1 x_4_1 + 1 x_4_7 <= 1
1 x_4_1 + 1 x_5_1 <= 1
1 x_4_1 + 1 x_5_2 <= 1
1 x_4_1 + 1 x_5_7 <= 1
1 x_4_2 + 1 x_4_3 <= 1
1 x_4_2 + 1 x_5_1 <= 1
1 x_4_2 + 1 x_5_2 <= 1
1 x_4_2 + 1 x_5_3 <= 1
1 x_4_3 + 1 x_4_4 <= 1
1 x_4_3 + 1 x_5_2 <= 1
1 x_4_3 + 1 x_5_3 <= 1
1 x_4_3 + 1 x_5_4 <= 1
1 x_4_4 + 1 x_4_5 <= 1
1 x_4_4 + 1 x_5_3 <= 1
1 x_4_4 + 1 x_5_4 <= 1
1 x_4_4 + 1 x_5_5 <= 1
1 x_4_5 + 1 x_4_6 <= 1
1 x_4_5 + 1 x_5_4 <= 1
1 x_4_5 + 1 x_5_5 <= 1
1 x_4_5 + 1 x_5_6 <= 1
1 x_4_6 + 1 x_4_7 <= 1
1 x_4_6 + 1 x_5_5 <= 1
1 x_4_6 + 1 x_5_6 <= 1
1 x_4_6 + 1 x_5_7 <= 1
1 x_4_7 + 1 x_5_1 <= 1
1 x_4_7 + 1 x_5_6 <= 1
1 x_4_7 + 1 x_5_7 <= 1
1 x_5_1 + 1 x_5_2 <= 1
1 x_5_1 + 1 x_5_7 <= 1
1 x_5_1 + 1 x_6_1 <= 1
1 x_5_1 + 1 x_6_2 <= 1
1 x_5_1 + 1 x_6_7 <= 1
1 x_5_2 + 1 x_5_3 <= 1
1 x_5_2 + 1 x_6_1 <= 1
1 x_5_2 + 1 x_6_2 <= 1
1 x_5_2 + 1 x_6_3 <= 1
1 x_5_3 + 1 x_5_4 <= 1
1 x_5_3 + 1 x_6_2 <= 1
1 x_5_3 + 1 x_6_3 <= 1
1 x_5_3 + 1 x_6_4 <= 1
1 x_5_4 + 1 x_5_5 <= 1
1 x_5_4 + 1 x_6_3 <= 1
1 x_5_4 + 1 x_6_4 <= 1
1 x_5_4 + 1 x_6_5 <= 1
1 x_5_5 + 1 x_5_6 <= 1
1 x_5_5 + 1 x_6_4 <= 1
1 x_5_5 + 1 x_6_5 <= 1
1 x_5_5 + 1 x_6_6 <= 1
1 x_5_6 + 1 x_5_7 <= 1
1 x_5_6 + 1 x_6_5 <= 1
1 x_5_6 + 1 x_6_6 <= 1
1 x_5_6 + 1 x_6_7 <= 1
1 x_5_7 + 1 x_6_1 <= 1
1 x_5_7 + 1 x_6_6 <= 1
1 x_5_7 + 1 x_6_7 <= 1
1 x_6_1 + 1 x_6_2 <= 1
1 x_6_1 + 1 x_6_7 <= 1
1 x_6_1 + 1 x_7_1 <= 1
1 x_6_1 + 1 x_7_2 <= 1
1 x_6_1 + 1 x_7_7 <= 1
1 x_6_2 + 1 x_6_3 <= 1
1 x_6_2 + 1 x_7_1 <= 1
1 x_6_2 + 1 x_7_2 <= 1
1 x_6_2 + 1 x_7_3 <= 1
1 x_6_3 + 1 x_6_4 <= 1
1 x_6_3 + 1 x_7_2 <= 1
1 x_6_3 + 1 x_7_3 <= 1
1 x_6_3 + 1 x_7_4 <= 1
1 x_6_4 + 1 x_6_5 <= 1
1 x_6_4 + 1 x_7_3 <= 1
1 x_6_4 + 1 x_7_4 <= 1
1 x_6_4 + 1 x_7_5 <= 1
1 x_6_5 + 1 x_6_6 <= 1
1 x_6_5 + 1 x_7_4 <= 1
1 x_6_5 + 1 x_7_5 <= 1
1 x_6_5 + 1 x_7_6 <= 1
1 x_6_6 + 1 x_6_7 <= 1
1 x_6_6 + 1 x_7_5 <= 1
1 x_6_6 + 1 x_7_6 <= 1
1 x_6_6 + 1 x_7_7 <= 1
1 x_6_7 + 1 x_7_1 <= 1
1 x_6_7 + 1 x_7_6 <= 1
1 x_6_7 + 1 x_7_7 <= 1
1 x_7_1 + 1 x_7_2 <= 1
1 x_7_1 + 1 x_7_7 <= 1
1 x_7_2 + 1 x_7_3 <= 1
1 x_7_3 + 1 x_7_4 <= 1
1 x_7_4 + 1 x_7_5 <= 1
1 x_7_5 + 1 x_7_6 <= 1
1 x_7_6 + 1 x_7_7 <= 1
binary
x_1_1 x_1_2 x_1_3 x_1_4 x_1_5 x_1_6 x_1_7 x_2_1 x_2_2 x_2_3 x_2_4 x_2_5 x_2_6 x_2_7 x_3_1 x_3_2 x_3_3 x_3_4 x_3_5 x_3_6 x_3_7 x_4_1 x_4_2 x_4_3 x_4_4 x_4_5 x_4_6 x_4_7 x_5_1 x_5_2 x_5_3 x_5_4 x_5_5 x_5_6 x_5_7 x_6_1 x_6_2 x_6_3 x_6_4 x_6_5 x_6_6 x_6_7 x_7_1 x_7_2 x_7_3 x_7_4 x_7_5 x_7_6 x_7_7
end
